TYPE : Vertex Cover
DIMENSION: 30
EDGE_DATA_SECTION:
0 4
0 6
0 11
0 16
0 24
0 26
0 27
0 28
1 17
1 18
1 21
2 4
2 5
2 6
2 8
2 10
2 14
2 15
2 16
2 20
2 21
2 22
3 5
3 7
3 8
3 9
3 11
3 15
3 22
4 5
4 6
4 9
4 15
4 23
5 10
5 13
5 15
5 17
5 20
5 22
5 28
6 7
6 8
6 11
6 14
6 17
6 20
6 23
6 26
7 9
7 12
7 14
7 16
7 17
7 19
8 20
8 21
8 27
8 29
9 10
9 15
9 17
9 19
9 26
9 29
10 13
10 17
10 18
10 19
10 26
10 28
11 12
11 13
11 16
11 17
11 18
11 20
11 23
11 24
11 25
12 13
12 14
12 18
12 28
12 29
13 17
13 24
14 15
14 23
15 20
15 24
16 25
16 26
16 28
16 29
17 21
17 23
17 25
17 27
18 20
18 28
19 25
20 24
20 28
21 24
21 25
21 27
23 24
25 26
26 27
26 28
26 29
-1
VERTEX_DEGREE:
8.0 3.0 11.0 7.0 7.0 10.0 11.0 8.0 7.0 9.0 9.0 12.0 7.0 6.0 6.0 8.0 8.0 12.0 6.0 4.0 9.0 7.0 3.0 6.0 7.0 6.0 9.0 5.0 8.0 5.0
VERTEX_COVER:
0 2 3 4 5 6 8 9 10 11 12 14 16 17 18 19 20 21 24 26
EOF
